22 23
40 25
46 36
31 19
0 37
22 42
8 41
39 49
30 33
36 15
1 47
22 41
4 38
14 42
28 18
5 48
11 14
36 35
26 32
17 40
9 26
44 22
44 8
36 23
44 5
27 36
24 25
32 45
39 36
20 18
22 38
44 43
2 3
5 9
38 1
36 37
8 30
4 37
12 37
19 33
14 5
5 28
35 45
6 27
7 3
20 42
10 22
6 14
19 42
8 19
31 6
16 27
27 2
40 22
31 20
49 48
47 22
15 31
41 24
30 16
15 20
7 44
38 9
26 15
42 14
30 36
10 9
20 49
47 43
39 37
42 12
47 10
4 8
30 4
6 1
9 38
41 27
31 5
28 27
16 43
33 45
26 46
18 1
27 12
26 30
1 47
32 5
1 34
48 31
49 37
37 45
13 13
42 16
5 13
14 19
8 39
47 9
1 22
19 39
41 0
